MoTe2 1Tp                               
   1.00000000000000     
     3.4520000000000000    0.0000000000000000    0.0000000000000000
     0.0000000000000000    6.3680000000000003    0.0000000000000000
     0.0000000000000000    0.0000000000000000   16.0000000000000000
   Te   Mo
     4     2
Direct
  0.5000000001171883  0.1016015795054736  0.1291691008795348
  0.5000000000338154  0.7491593612663494  0.9075570228111723
  0.0000000001639536  0.2574397037380850  0.8708307254739246
 -0.0000000002688183  0.6098781568995260  0.0924437580105719
  0.5000000001887375  0.3607786843329610  0.9940671530717140
 -0.0000000002348763  0.9982593484284639  0.0059322397530823
 
  0.00000000E+00  0.00000000E+00  0.00000000E+00
  0.00000000E+00  0.00000000E+00  0.00000000E+00
  0.00000000E+00  0.00000000E+00  0.00000000E+00
  0.00000000E+00  0.00000000E+00  0.00000000E+00
  0.00000000E+00  0.00000000E+00  0.00000000E+00
  0.00000000E+00  0.00000000E+00  0.00000000E+00
