MoTe2 2H                                
   1.00000000000000     
     3.5510000000000002    0.0000000000000000    0.0000000000000000
     0.0000000000000000    6.1490000000000000    0.0000000000000000
     0.0000000000000000    0.0000000000000000   16.0000000000000000
   Te   Mo
     4     2
Direct
  0.0000000000535777  0.6666590768470783  0.1128690107361779
  0.0000000004876695  0.6666590759990170  0.8871309886869482
  0.4999999988577372  0.1666589691162756  0.1128677045080231
  0.4999999980672791  0.1666589687506559  0.8871322947357394
  0.5000000025007229  0.5000120421459577  0.0000000009455368
  0.0000000000330137  0.0000098603106375  0.0000000003875746
 
  0.00000000E+00  0.00000000E+00  0.00000000E+00
  0.00000000E+00  0.00000000E+00  0.00000000E+00
  0.00000000E+00  0.00000000E+00  0.00000000E+00
  0.00000000E+00  0.00000000E+00  0.00000000E+00
  0.00000000E+00  0.00000000E+00  0.00000000E+00
  0.00000000E+00  0.00000000E+00  0.00000000E+00
