MoTe2 2H                                
   1.00000000000000     
     3.5510000000000002    0.0000000000000000    0.0000000000000000
     0.0000000000000000    6.1490000000000000    0.0000000000000000
     0.0000000000000000    0.0000000000000000   16.0000000000000000
   Te   Mo
     4     2
Direct
  0.0000000002986900  0.6666590900300028  0.1128714881921976
  0.0000000007741018  0.6666590887407539  0.8871285109799169
  0.4999999991182288  0.1666589912980018  0.1128701851465701
  0.4999999976383540  0.1666589905566490  0.8871298138033944
  0.5000000020781252  0.5000120223790125  0.0000000012389251
  0.0000000000925002  0.0000098101652021  0.0000000006389960
 
  0.00000000E+00  0.00000000E+00  0.00000000E+00
  0.00000000E+00  0.00000000E+00  0.00000000E+00
  0.00000000E+00  0.00000000E+00  0.00000000E+00
  0.00000000E+00  0.00000000E+00  0.00000000E+00
  0.00000000E+00  0.00000000E+00  0.00000000E+00
  0.00000000E+00  0.00000000E+00  0.00000000E+00
