MoTe2 2H                                
   1.00000000000000     
     3.5510000000000002    0.0000000000000000    0.0000000000000000
     0.0000000000000000    6.1490000000000000    0.0000000000000000
     0.0000000000000000    0.0000000000000000   16.0000000000000000
   Te   Mo
     4     2
Direct
  0.0000000004198829  0.6666590852259098  0.1128703561243090
  0.0000000008325424  0.6666590839413430  0.8871296430417027
  0.4999999991837163  0.1666589918330195  0.1128690544206038
  0.4999999977021035  0.1666589911004048  0.8871309445551493
  0.5000000019449483  0.5000120262622872  0.0000000012508601
 -0.0000000000831935  0.0000098148066575  0.0000000006073752
 
  0.00000000E+00  0.00000000E+00  0.00000000E+00
  0.00000000E+00  0.00000000E+00  0.00000000E+00
  0.00000000E+00  0.00000000E+00  0.00000000E+00
  0.00000000E+00  0.00000000E+00  0.00000000E+00
  0.00000000E+00  0.00000000E+00  0.00000000E+00
  0.00000000E+00  0.00000000E+00  0.00000000E+00
