Te Mo                                   
   1.00000000000000     
     7.1020000000000003    0.0000000000000000    0.0000000000000000
     0.0000000000000000   12.2980000000000000    0.0000000000000000
     0.0000000000000000    0.0000000000000000   16.0000000000000000
   Te   Mo
    16     8
Direct
  0.0000000000000000  0.3333298097251571  0.1128287499999985
  0.5000000000000000  0.3333298097251571  0.1128287499999985
  0.0000000000000000  0.8333298097251571  0.1128287499999985
  0.5000000000000000  0.8333298097251571  0.1128287499999985
  0.0000000000000000  0.3333298097251571  0.8871712500000015
  0.5000000000000000  0.3333298097251571  0.8871712500000015
  0.0000000000000000  0.8333298097251571  0.8871712500000015
  0.5000000000000000  0.8333298097251571  0.8871712500000015
  0.2500000000000000  0.0833289965848110  0.1128275000000016
  0.7500000000000000  0.0833289965848110  0.1128275000000016
  0.2500000000000000  0.5833289965848110  0.1128275000000016
  0.7500000000000000  0.5833289965848110  0.1128275000000016
  0.2500000000000000  0.0833289965848110  0.8871724999999984
  0.7500000000000000  0.0833289965848110  0.8871724999999984
  0.2500000000000000  0.5833289965848110  0.8871724999999984
  0.7500000000000000  0.5833289965848110  0.8871724999999984
  0.2500000000000000  0.2500073182631297  0.0000000000000000
  0.7500000000000000  0.2500073182631297  0.0000000000000000
  0.2500000000000000  0.7500073182631297  0.0000000000000000
  0.7500000000000000  0.7500073182631297  0.0000000000000000
  0.0000000000000000  0.0000040657017379  0.0000000000000000
  0.5000000000000000  0.0000040657017379  0.0000000000000000
  0.0000000000000000  0.5000040657017379  0.0000000000000000
  0.5000000000000000  0.5000040657017379  0.0000000000000000
 
  0.00000000E+00  0.00000000E+00  0.00000000E+00
  0.00000000E+00  0.00000000E+00  0.00000000E+00
  0.00000000E+00  0.00000000E+00  0.00000000E+00
  0.00000000E+00  0.00000000E+00  0.00000000E+00
  0.00000000E+00  0.00000000E+00  0.00000000E+00
  0.00000000E+00  0.00000000E+00  0.00000000E+00
  0.00000000E+00  0.00000000E+00  0.00000000E+00
  0.00000000E+00  0.00000000E+00  0.00000000E+00
  0.00000000E+00  0.00000000E+00  0.00000000E+00
  0.00000000E+00  0.00000000E+00  0.00000000E+00
  0.00000000E+00  0.00000000E+00  0.00000000E+00
  0.00000000E+00  0.00000000E+00  0.00000000E+00
  0.00000000E+00  0.00000000E+00  0.00000000E+00
  0.00000000E+00  0.00000000E+00  0.00000000E+00
  0.00000000E+00  0.00000000E+00  0.00000000E+00
  0.00000000E+00  0.00000000E+00  0.00000000E+00
  0.00000000E+00  0.00000000E+00  0.00000000E+00
  0.00000000E+00  0.00000000E+00  0.00000000E+00
  0.00000000E+00  0.00000000E+00  0.00000000E+00
  0.00000000E+00  0.00000000E+00  0.00000000E+00
  0.00000000E+00  0.00000000E+00  0.00000000E+00
  0.00000000E+00  0.00000000E+00  0.00000000E+00
  0.00000000E+00  0.00000000E+00  0.00000000E+00
  0.00000000E+00  0.00000000E+00  0.00000000E+00
