MoTe2 1Tp                               
   1.00000000000000     
     3.4520000000000000    0.0000000000000000    0.0000000000000000
     0.0000000000000000    6.3680000000000003    0.0000000000000000
     0.0000000000000000    0.0000000000000000   16.0000000000000000
   Te   Mo
     4     2
Direct
  0.5000000001640795  0.1015941313581757  0.1291642140924970
  0.5000000000649257  0.7491525307755699  0.9075662002195671
  0.0000000001607940  0.2574471715503255  0.8708356027773623
 -0.0000000002683143  0.6098849832730963  0.0924345792214950
  0.5000000001696520  0.3607367045113810  0.9940551731782090
 -0.0000000002911369  0.9983013127023105  0.0059442305108696
 
  0.00000000E+00  0.00000000E+00  0.00000000E+00
  0.00000000E+00  0.00000000E+00  0.00000000E+00
  0.00000000E+00  0.00000000E+00  0.00000000E+00
  0.00000000E+00  0.00000000E+00  0.00000000E+00
  0.00000000E+00  0.00000000E+00  0.00000000E+00
  0.00000000E+00  0.00000000E+00  0.00000000E+00
