MoTe2 2H                                
   1.00000000000000     
     3.5510000000000002    0.0000000000000000    0.0000000000000000
     0.0000000000000000    6.1490000000000000    0.0000000000000000
     0.0000000000000000    0.0000000000000000   16.0000000000000000
   Te   Mo
     4     2
Direct
  0.0000000000651816  0.6666589726609857  0.1128678878828115
  0.0000000003811248  0.6666589718153187  0.8871321115021692
  0.4999999988937692  0.1666588783229089  0.1128665842436315
  0.4999999980507104  0.1666588780029494  0.8871334150177338
  0.5000000026814175  0.5000122286623305  0.0000000009693347
 -0.0000000000722035  0.0000100637051286  0.0000000003843191
 
  0.00000000E+00  0.00000000E+00  0.00000000E+00
  0.00000000E+00  0.00000000E+00  0.00000000E+00
  0.00000000E+00  0.00000000E+00  0.00000000E+00
  0.00000000E+00  0.00000000E+00  0.00000000E+00
  0.00000000E+00  0.00000000E+00  0.00000000E+00
  0.00000000E+00  0.00000000E+00  0.00000000E+00
