Te Mo                                   
   1.00000000000000     
     6.9039999999999999    0.0000000000000000    0.0000000000000000
     0.0000000000000000   12.7360000000000007    0.0000000000000000
     0.0000000000000000    0.0000000000000000   16.0000000000000000
   Te   Mo
    16     8
Direct
  0.2500000000000000  0.0508165829145710  0.1291331250000027
  0.7500000000000000  0.0508165829145710  0.1291331250000027
  0.2500000000000000  0.5508165829145710  0.1291331250000027
  0.7500000000000000  0.5508165829145710  0.1291331250000027
  0.2500000000000000  0.3745783605527606  0.9075843749999990
  0.7500000000000000  0.3745783605527606  0.9075843749999990
  0.2500000000000000  0.8745783605527606  0.9075843749999990
  0.7500000000000000  0.8745783605527606  0.9075843749999990
  0.0000000000000000  0.1287052449748742  0.8708656250000004
  0.5000000000000000  0.1287052449748742  0.8708656250000004
  0.0000000000000000  0.6287052449748742  0.8708656250000004
  0.5000000000000000  0.6287052449748742  0.8708656250000004
  0.0000000000000000  0.3049403266331652  0.0924162499999994
  0.5000000000000000  0.3049403266331652  0.0924162499999994
  0.0000000000000000  0.8049403266331652  0.0924162499999994
  0.5000000000000000  0.8049403266331652  0.0924162499999994
  0.2500000000000000  0.1802983668341724  0.9940674999999999
  0.7500000000000000  0.1802983668341724  0.9940674999999999
  0.2500000000000000  0.6802983668341724  0.9940674999999999
  0.7500000000000000  0.6802983668341724  0.9940674999999999
  0.0000000000000000  0.9992195351758824  0.0059331249999985
  0.5000000000000000  0.9992195351758824  0.0059331249999985
  0.0000000000000000  0.4992195351758824  0.0059331249999985
  0.5000000000000000  0.4992195351758824  0.0059331249999985
 
  0.00000000E+00  0.00000000E+00  0.00000000E+00
  0.00000000E+00  0.00000000E+00  0.00000000E+00
  0.00000000E+00  0.00000000E+00  0.00000000E+00
  0.00000000E+00  0.00000000E+00  0.00000000E+00
  0.00000000E+00  0.00000000E+00  0.00000000E+00
  0.00000000E+00  0.00000000E+00  0.00000000E+00
  0.00000000E+00  0.00000000E+00  0.00000000E+00
  0.00000000E+00  0.00000000E+00  0.00000000E+00
  0.00000000E+00  0.00000000E+00  0.00000000E+00
  0.00000000E+00  0.00000000E+00  0.00000000E+00
  0.00000000E+00  0.00000000E+00  0.00000000E+00
  0.00000000E+00  0.00000000E+00  0.00000000E+00
  0.00000000E+00  0.00000000E+00  0.00000000E+00
  0.00000000E+00  0.00000000E+00  0.00000000E+00
  0.00000000E+00  0.00000000E+00  0.00000000E+00
  0.00000000E+00  0.00000000E+00  0.00000000E+00
  0.00000000E+00  0.00000000E+00  0.00000000E+00
  0.00000000E+00  0.00000000E+00  0.00000000E+00
  0.00000000E+00  0.00000000E+00  0.00000000E+00
  0.00000000E+00  0.00000000E+00  0.00000000E+00
  0.00000000E+00  0.00000000E+00  0.00000000E+00
  0.00000000E+00  0.00000000E+00  0.00000000E+00
  0.00000000E+00  0.00000000E+00  0.00000000E+00
  0.00000000E+00  0.00000000E+00  0.00000000E+00
