MoTe2 1Tp                               
   1.00000000000000     
     3.4520000000000000    0.0000000000000000    0.0000000000000000
     0.0000000000000000    6.3680000000000003    0.0000000000000000
     0.0000000000000000    0.0000000000000000   16.0000000000000000
   Te   Mo
     4     2
Direct
  0.5000000002258754  0.1015851316740140  0.1291580652631178
  0.5000000000479371  0.7491493700178550  0.9075719664521544
  0.0000000001363228  0.2574560049815102  0.8708418258102246
 -0.0000000002585609  0.6098881530119222  0.0924288242112459
  0.4999999999887804  0.3606044555801707  0.9940352610274472
 -0.0000000001403548  0.9984337189053867  0.0059640572358100
 
  0.00000000E+00  0.00000000E+00  0.00000000E+00
  0.00000000E+00  0.00000000E+00  0.00000000E+00
  0.00000000E+00  0.00000000E+00  0.00000000E+00
  0.00000000E+00  0.00000000E+00  0.00000000E+00
  0.00000000E+00  0.00000000E+00  0.00000000E+00
  0.00000000E+00  0.00000000E+00  0.00000000E+00
