MoTe2 1Tp                               
   1.00000000000000     
     3.4520000000000000    0.0000000000000000    0.0000000000000000
     0.0000000000000000    6.3680000000000003    0.0000000000000000
     0.0000000000000000    0.0000000000000000   16.0000000000000000
   Te   Mo
     4     2
Direct
  0.5000000001922335  0.1015933396282549  0.1291587107581668
  0.4999999999862564  0.7491521892574100  0.9075738799396537
  0.0000000000971667  0.2574480781749781  0.8708410540455658
 -0.0000000001696869  0.6098853155231909  0.0924268919698360
  0.5000000001139772  0.3606793889343780  0.9940478677947742
 -0.0000000002199469  0.9983585226526469  0.0059515954920036
 
  0.00000000E+00  0.00000000E+00  0.00000000E+00
  0.00000000E+00  0.00000000E+00  0.00000000E+00
  0.00000000E+00  0.00000000E+00  0.00000000E+00
  0.00000000E+00  0.00000000E+00  0.00000000E+00
  0.00000000E+00  0.00000000E+00  0.00000000E+00
  0.00000000E+00  0.00000000E+00  0.00000000E+00
